%chk=nh3.chk
#p opt freq hf/3-21g

NH3 Calculation

0 1
N   0.000000   0.000000  -0.122208
H   0.000000   0.938020   0.866260
H   0.812479  -0.469010   0.866260
H  -0.812479  -0.469010   0.866260

