%nprocshared=12
%chk=c10h8.chk
#p opt=tight freq hf/6-311++g(d,p) geom=connectivity

Title Card Required

0 1
 C              
 C                  1            B1
 C                  2            B2    1            A1
 C                  3            B3    2            A2    1            D1    0
 C                  4            B4    3            A3    2            D2    0
 C                  5            B5    4            A4    3            D3    0
 H                  3            B6    2            A5    1            D4    0
 H                  1            B7    2            A6    3            D5    0
 H                  2            B8    1            A7    6            D6    0
 C                  3            B9    2            A8    1            D7    0
 C                  4           B10    3            A9    2            D8    0
 H                  5           B11    4           A10    3            D9    0
 H                  6           B12    5           A11    4           D10    0
 C                 11           B13    4           A12    3           D11    0
 C                 10           B14    3           A13    2           D12    0
 H                 11           B15    4           A14    3           D13    0
 H                 14           B16   11           A15    4           D14    0
 H                 15           B17   10           A16    3           D15    0

   B1             1.37280100
   B2             1.42201123
   B3             1.41886767
   B4             1.42171947
   B5             1.37334014
   B6             2.17550196
   B7             1.09999546
   B8             1.10033209
   B9             1.42203394
   B10            1.42208345
   B11            1.10020861
   B12            1.09995307
   B13            1.37286103
   B14            1.37294087
   B15            1.10034919
   B16            1.09996269
   B17            1.09994644
   A1           120.50994916
   A2           119.09589823
   A3           119.21032595
   A4           120.45591024
   A5            95.34832588
   A6           120.64768218
   A7           120.88319677
   A8           121.70036391
   A9           119.05963413
   A10          118.64414245
   A11          120.64565435
   A12          120.54905064
   A13          120.49677123
   A14          118.59132252
   A15          120.64917183
   A16          120.68504056
   D1             0.01709885
   D2            -0.00955808
   D3            -0.00403687
   D4          -179.99357217
   D5           179.99515646
   D6          -179.99714111
   D7          -179.98754519
   D8           179.99468699
   D9          -179.98782799
   D10         -179.99902998
   D11            0.00144631
   D12         -179.99952870
   D13          179.99837506
   D14          179.98386937
   D15          179.99872879

 1 2 1.5 6 1.5 8 1.0
 2 3 1.5 9 1.0
 3 4 1.5 10 1.5
 4 5 1.5 11 1.5
 5 6 1.5 12 1.0
 6 13 1.0
 7 10 1.0
 8
 9
 10 15 1.5
 11 14 1.5 16 1.0
 12
 13
 14 15 1.5 17 1.0
 15 18 1.0
 16
 17
 18

