%nprocshared=12
%chk=c5h10.chk
#p opt=(tight,modredundant) freq hf/6-311++g(d,p) geom=connectivity

Title Card Required

0 1
 C              
 C                  1            B1
 C                  2            B2    1            A1
 C                  3            B3    2            A2    1            D1    0
 H                  1            B4    4            A3    3            D2    0
 H                  1            B5    4            A4    3            D3    0
 H                  2            B6    1            A5    4            D4    0
 H                  2            B7    1            A6    4            D5    0
 H                  3            B8    2            A7    1            D6    0
 H                  3            B9    2            A8    1            D7    0
 H                  4           B10    3            A9    2            D8    0
 H                  4           B11    3           A10    2            D9    0
 C                  2           B12    1           A11    4           D10    0
 H                 13           B13    2           A12    1           D11    0
 H                 13           B14    2           A13    1           D12    0

   B1             2.29930093
   B2             1.55603200
   B3             1.55603200
   B4             1.07000000
   B5             1.07000000
   B6             1.07000000
   B7             1.07000000
   B8             1.07000000
   B9             1.07000000
   B10            1.07000000
   B11            1.07000000
   B12            1.51430499
   B13            1.07000000
   B14            1.07000000
   A1            74.72464085
   A2           102.38965047
   A3           111.38018558
   A4           120.58261285
   A5            94.05339576
   A6           150.54101468
   A7           106.26491481
   A8           116.69836223
   A9           113.26993907
   A10          108.69099406
   A11           36.03641332
   A12          112.84936944
   A13          113.30628396
   D1           -21.79035181
   D2          -175.25660066
   D3            57.35308843
   D4           129.52337275
   D5           -89.19605446
   D6           101.11660570
   D7          -137.35032767
   D8           146.93793096
   D9           -92.09124365
   D10         -120.93018835
   D11          106.57778633
   D12         -130.90491128

 1 4 1.0 5 1.0 6 1.0 13 1.0
 2 3 1.0 7 1.0 8 1.0 13 1.0
 3 4 1.0 9 1.0 10 1.0
 4 11 1.0 12 1.0
 5
 6
 7
 8
 9
 10
 11
 12
 13 14 1.0 15 1.0
 14
 15

D 4 3 2 13 F

